\ This file has been generated by DOcplex
\ ENCODING=ISO-8859-1
\Problem name: Orandom24342_6.lp

Minimize
 obj: - 35.999999817442 x0 - 17.999999908721 x1 - 8.999999954361 x2
      - 23.999999817442 x3 - 11.999999908721 x4 - 5.999999954361 x5 + [
      15.999999895681 x0^2 + 15.999999895681 x0*x1 + 7.999999947841 x0*x2
      + 31.999999791363 x0*x3 + 15.999999895681 x0*x4 + 7.999999947841 x0*x5
      + 3.999999973920 x1^2 + 3.999999973920 x1*x2 + 15.999999895681 x1*x3
      + 7.999999947841 x1*x4 + 3.999999973920 x1*x5 + 0.999999993480 x2^2
      + 7.999999947841 x2*x3 + 3.999999973920 x2*x4 + 1.999999986960 x2*x5
      + 47.999999895681 x3^2 + 47.999999895681 x3*x4 + 23.999999947841 x3*x5
      + 11.999999973920 x4^2 + 11.999999973920 x4*x5 + 2.999999993480 x5^2 ]/2 +
      24.499999840262
Subject To

Bounds
 0 <= x0 <= 1
 0 <= x1 <= 1
 0 <= x2 <= 1
 0 <= x3 <= 1
 0 <= x4 <= 1
 0 <= x5 <= 1

Binaries
 x0 x1 x2 x3 x4 x5
End
